c ---- [ banner ] ------------------------------------------------------------
c
c Kissat SAT Solver
c 
c Copyright (c) 2021-2024 Armin Biere University of Freiburg
c Copyright (c) 2019-2021 Armin Biere Johannes Kepler University Linz
c 
c Version 4.0.1 43f02cf3e992cb44653b35e5cb26f93281552ae0
c gcc (Ubuntu 13.2.0-23ubuntu4) 13.2.0 -W -Wall -O3 -DNDEBUG
c Thu Sep 12 12:27:46 CEST 2024 Linux abryzen9 6.8.0-41-generic x86_64
c
c ---- [ parsing ] -----------------------------------------------------------
c
c opened and reading DIMACS file:
c
c   /data/artifact/AMulet2.0_artifact/exp4/cnf_sopb_64/64_64_U2_DT_LF_Multgen_sopb.cnf
c
c parsed 'p cnf 27641 127444' header
c closing input after reading 2556236 bytes (2 MB)
c finished parsing after 0.02 seconds
c
c ---- [ options ] -----------------------------------------------------------
c
c --stable=0                       (different from default '1')
c
c ---- [ solving ] -----------------------------------------------------------
c
c  seconds switched rate     size/glue tier1  binary          remaining
c         MB reductions conflicts size  tier2    irredundant
c          level restarts redundant glue  trail          variables
c
c *  0.02 10 0 0 0  0 0   0   0 0.0 0 0 0 0 0% 4108 123334 27638 100%
c (  0.05 13 0 0 0  0 0   0   0 0.0 0 0 0 0 0% 4108 123334 27638 100%
c .  0.06 13 0 0 0  0 0   0   0 0.0 0 0 0 0 0% 4104 123334 27638 100%
c c  0.15 17 0 0 0  0 0   0   0 0.0 0 0 0 0 0% 4624 122375 27397 99%
c d  0.16 17 0 0 0  0 0   0   0 0.0 0 0 0 0 0% 4140 122375 27397 99%
c =  0.22 17 0 0 0  0 0   0   0 0.0 0 0 0 0 0% 4226 122375 27353 99%
c d  0.22 17 0 0 0  0 0   0   0 0.0 0 0 0 0 0% 4138 122375 27353 99%
c f  0.38 17 0 0 0  0 0   0   0 0.0 0 0 0 0 0% 11191 111615 30918 112%
c e  0.68 24 0 0 0  0 0   0   0 0.0 0 0 0 0 0% 2669 122675 20789 75%
c )  0.68 24 0 0 0  0 0   0   0 0.0 0 0 0 0 0% 2669 122675 20789 75%
c {  0.71 24 0 0 0  0 0   0   0 0.0 0 0 2 6 0% 2669 122675 20789 75%
c -  0.90 25 135 0 1 187 25 1000 760 2.6 12 5 3 8 18% 2705 122675 20789 75%
c -  1.16 25 237 0 2 324 35 2000 1577 2.6 12 5 3 9 26% 2712 122675 20789 75%
c c  1.29 23 259 0 2 368 39 2505 2023 2.5 12 5 3 9 26% 2730 122664 20786 75%
c d  1.30 23 259 0 2 368 39 2505 2023 2.5 12 5 3 9 26% 2724 122664 20786 75%
c u  1.31 23 259 0 2 368 39 2505 1708 2.5 12 5 3 9 26% 2728 122664 20786 75%
c v  1.32 23 259 0 2 368 39 2505 1467 2.5 12 5 3 9 26% 2728 122664 20786 75%
c w  1.34 23 259 0 2 368 39 2505 1463 2.5 12 5 3 9 26% 2728 122664 20786 75%
c x  1.35 23 259 0 2 368 39 2505 1463 2.5 12 5 3 9 26% 2728 122543 20786 75%
c =  1.39 23 259 0 2 368 39 2505 1463 2.5 12 5 3 9 26% 2730 122543 20785 75%
c
c  seconds   switched   rate       size/glue tier1    binary          remaining
c         MB  reductions conflicts       size  tier2     irredundant
c           level restarts    redundant    glue   trail          variables
c
c d  1.40 23 259 0 2 368 39 2505 1463 2.5 12 5 3 9 26% 2728 122543 20785 75%
c t  1.40 23 259 0 2 368 39 2505 1463 2.5 12 5 3 9 26% 2711 122543 20785 75%
c f  1.42 23 259 0 2 368 39 2505 1463 2.5 12 5 3 9 26% 2897 122171 20875 76%
c b  1.43 23 259 0 2 368 39 2505 1463 2.5 12 5 3 9 26% 2897 122171 20874 76%
c u  1.44 23 259 0 2 368 39 2505 1437 2.5 12 5 3 9 26% 2898 122171 20874 76%
c v  1.45 23 259 0 2 368 39 2505 1387 2.5 12 5 3 9 26% 2898 122171 20874 76%
c w  1.47 23 259 0 2 368 39 2505 1384 2.5 12 5 3 9 26% 2898 122171 20874 76%
c x  1.49 24 259 0 2 368 39 2505 1384 2.5 12 5 3 9 26% 2898 122148 20874 76%
c =  1.53 24 259 0 2 368 39 2505 1384 2.5 12 5 3 9 26% 2988 122148 20829 75%
c d  1.54 24 259 0 2 368 39 2505 1384 2.5 12 5 3 9 26% 2882 122148 20829 75%
c t  1.54 24 259 0 2 368 39 2505 1384 2.5 12 5 3 9 26% 2871 122148 20829 75%
c f  1.56 24 259 0 2 368 39 2505 1384 2.5 12 5 3 9 26% 3114 121773 20953 76%
c -  1.77 24 239 0 3 525 40 3416 1977 3.2 16 5 3 8 25% 3130 121773 20953 76%
c -  2.08 25 311 0 4 737 41 5148 3081 3.4 18 5 2 9 24% 3173 121773 20953 76%
c -  2.60 25 330 0 5 961 41 7148 4256 3.6 18 5 2 8 24% 3237 121773 20953 76%
c c  2.83 25 324 0 5 1023 41 7716 4747 3.6 19 5 2 8 25% 3263 121595 20920 76%
c d  2.84 25 324 0 5 1023 41 7716 4731 3.6 19 5 2 8 25% 3193 121595 20919 76%
c u  2.87 25 324 0 5 1023 41 7716 4383 3.6 19 5 2 8 25% 3200 121595 20919 76%
c v  2.91 25 324 0 5 1023 41 7716 3675 3.6 19 5 2 8 25% 3202 121595 20919 76%
c w  2.96 25 324 0 5 1023 41 7716 3664 3.6 19 5 2 8 25% 3202 121595 20919 76%
c
c  seconds   switched    rate       size/glue tier1    binary          remaining
c         MB  reductions  conflicts       size  tier2     irredundant
c           level  restarts    redundant    glue   trail          variables
c
c =  3.11 25 324 0 5 1023 41 7716 3664 3.6 19 5 2 8 25% 3442 121595 20799 75%
c d  3.11 25 324 0 5 1023 41 7716 3655 3.6 19 5 2 8 25% 3111 121595 20798 75%
c t  3.13 25 324 0 5 1023 41 7716 3655 3.6 19 5 2 8 25% 3105 121595 20798 75%
c f  3.18 25 324 0 5 1023 41 7716 3655 3.6 19 5 2 8 25% 3358 121205 20925 76%
c u  3.29 25 324 0 5 1023 41 7716 3584 3.6 19 5 2 8 25% 3359 121205 20925 76%
c v  3.32 25 324 0 5 1023 41 7716 3490 3.6 19 5 2 8 25% 3359 121205 20925 76%
c w  3.36 25 324 0 5 1023 41 7716 3485 3.6 19 5 2 8 25% 3359 121205 20925 76%
c x  3.41 25 324 0 5 1023 41 7716 3485 3.6 19 5 2 8 25% 3360 120906 20925 76%
c =  3.56 25 324 0 5 1023 41 7716 3485 3.6 19 5 2 8 25% 3634 120906 20788 75%
c d  3.57 25 324 0 5 1023 41 7716 3473 3.6 19 5 2 8 25% 3348 120906 20788 75%
c t  3.58 25 324 0 5 1023 41 7716 3473 3.6 19 5 2 8 25% 3308 120906 20788 75%
c f  3.63 25 324 0 5 1023 41 7716 3473 3.6 19 5 2 8 25% 3492 120630 20880 76%
c -  4.02 25 317 0 6 1177 40 9384 4407 3.5 18 5 2 8 24% 3543 120630 20880 76%
c o  4.21 25 312 0 6 1240 40 10006 4992 3.6 19 5 2 8 24% 3549 120630 20880 76%
c -  4.96 25 306 0 7 1461 40 11834 5980 3.7 20 5 2 8 25% 3587 120630 20880 76%
c s  5.22 25 313 0 7 1525 41 12521 6563 3.7 20 5 2 8 25% 3599 119398 20880 76%
c e  5.32 25 313 0 7 1525 41 12521 6563 3.7 20 5 2 8 25% 2856 119686 20394 74%
c s  5.33 25 313 0 7 1525 41 12521 6563 3.7 20 5 2 8 25% 2864 119321 20394 74%
c e  5.34 25 313 0 7 1525 41 12521 6563 3.7 20 5 2 8 25% 2797 119378 20355 74%
c ^  5.34 25 313 0 7 1525 41 12521 6563 3.7 20 5 2 8 25% 2797 119378 20355 74%
c
c  seconds   switched    rate        size/glue tier1    binary          remaining
c         MB  reductions   conflicts       size  tier2     irredundant
c           level  restarts     redundant    glue   trail          variables
c
c -  5.93 25 314 0 8 1720 41 14484 7324 3.8 20 5 2 8 25% 2842 119378 20355 74%
c d  6.37 25 318 0 8 1871 41 15805 8538 3.7 20 6 2 8 25% 2777 119378 20316 74%
c u  6.41 25 318 0 8 1871 41 15805 7905 3.7 20 6 2 8 25% 2788 119378 20316 74%
c v  6.44 25 318 0 8 1871 41 15805 6781 3.7 20 6 2 8 25% 2790 119378 20316 74%
c w  6.49 25 318 0 8 1871 41 15805 6779 3.7 20 6 2 8 25% 2790 119378 20316 74%
c x  6.52 25 318 0 8 1871 41 15805 6779 3.7 20 6 2 8 25% 2794 118635 20316 74%
c =  6.71 25 318 0 8 1871 41 15805 6779 3.7 20 6 2 8 25% 3560 118635 19933 72%
c d  6.72 25 318 0 8 1871 41 15805 6744 3.7 20 6 2 8 25% 2747 118635 19932 72%
c t  6.73 25 318 0 8 1871 41 15805 6744 3.7 20 6 2 8 25% 2694 118635 19932 72%
c f  6.78 25 318 0 8 1871 41 15805 6744 3.7 20 6 2 8 25% 2717 118547 19952 72%
c u  6.89 25 318 0 8 1871 41 15805 6595 3.7 20 6 2 8 25% 2724 118546 19951 72%
c v  6.92 25 318 0 8 1871 41 15805 6430 3.7 20 6 2 8 25% 2724 118546 19951 72%
c w  7.04 25 318 0 8 1871 41 15805 6395 3.7 20 6 2 8 25% 2724 118546 19951 72%
c x  7.08 25 318 0 8 1871 41 15805 6395 3.7 20 6 2 8 25% 2725 117868 19951 72%
c =  7.31 25 318 0 8 1871 41 15805 6395 3.7 20 6 2 8 25% 6083 117868 18272 66%
c d  7.32 25 318 0 8 1871 41 15805 6351 3.7 20 6 2 8 25% 2620 117868 18269 66%
c f  7.40 25 318 0 8 1871 41 15805 6351 3.7 20 6 2 8 25% 2626 117852 18274 66%
c -  7.76 25 311 0 9 1990 39 17312 7029 3.6 20 6 2 8 25% 2652 117852 18274 66%
c o  8.59 25 298 0 9 2247 38 20048 9372 3.5 20 6 2 8 25% 2712 117852 18274 66%
c -  8.74 25 301 0 10 2307 39 20314 8844 3.7 21 6 2 7 25% 2713 117852 18274 66%
c
c  seconds   switched     rate         size/glue tier1    binary          remaining
c         MB   reductions   conflicts        size  tier2     irredundant
c           level   restarts      redundant    glue   trail          variables
c
c -  9.59 25 292 0 11 2563 38 23476 10602 3.7 22 6 2 7 25% 2749 117851 18274 66%
c s 10.05 25 303 0 11 2703 38 25040 11986 3.7 22 6 2 7 25% 2761 105735 18274 66%
c e 10.17 25 303 0 11 2703 38 25040 11986 3.7 22 6 2 7 25% 1823 106902 17753 64%
c 2 10.17 25 303 0 11 2703 38 25040 11986 3.7 22 6 2 7 25% 1822 106902 17753 64%
c s 10.18 25 303 0 11 2703 38 25040 11986 3.7 22 6 2 7 25% 1853 106457 17753 64%
c e 10.20 25 303 0 11 2703 38 25040 11986 3.7 22 6 2 7 25% 1825 106492 17740 64%
c ^ 10.20 25 303 0 11 2703 38 25040 11986 3.7 22 6 2 7 25% 1825 106492 17740 64%
c - 10.76 25 300 0 12 2908 38 26794 11596 3.7 22 6 2 7 25% 1867 106492 17740 64%
c d 10.82 25 299 0 12 2923 38 26944 11718 3.7 22 6 2 7 25% 1831 106492 17721 64%
c u 10.89 25 299 0 12 2923 38 26944 10468 3.7 22 6 2 7 25% 1842 106492 17721 64%
c v 10.95 25 299 0 12 2923 38 26944 9264 3.7 22 6 2 7 25% 1842 106492 17721 64%
c w 10.97 25 299 0 12 2923 38 26944 9258 3.7 22 6 2 7 25% 1842 106492 17721 64%
c x 11.04 25 299 0 12 2923 38 26944 9256 3.7 22 6 2 7 25% 1843 106474 17721 64%
c = 11.35 25 299 0 12 2923 38 26944 9256 3.7 22 6 2 7 25% 5175 106468 16055 58%
c d 11.36 25 299 0 12 2923 38 26944 9061 3.7 22 6 2 7 25% 1720 106468 16055 58%
c t 11.37 25 299 0 12 2923 38 26944 9061 3.7 22 6 2 7 25% 1696 106468 16055 58%
c f 11.45 25 299 0 12 2923 38 26944 9061 3.7 22 6 2 7 25% 1752 106295 16089 58%
c u 11.51 25 299 0 12 2923 38 26944 8704 3.7 22 6 2 7 25% 1753 106295 16089 58%
c v 11.54 25 299 0 12 2923 38 26944 8532 3.7 22 6 2 7 25% 1753 106295 16089 58%
c w 11.56 25 299 0 12 2923 38 26944 8527 3.7 22 6 2 7 25% 1753 106295 16089 58%
c
c  seconds   switched     rate        size/glue tier1    binary          remaining
c         MB   reductions   conflicts       size  tier2     irredundant
c           level   restarts     redundant    glue   trail          variables
c
c = 11.85 25 299 0 12 2923 38 26944 8527 3.7 22 6 2 7 25% 2923 106295 15504 56%
c d 11.86 25 299 0 12 2923 38 26944 8518 3.7 22 6 2 7 25% 1740 106295 15504 56%
c f 11.92 25 299 0 12 2923 38 26944 8518 3.7 22 6 2 7 25% 1752 106264 15510 56%
c - 12.38 25 295 0 13 3066 36 30258 10579 3.6 21 6 2 6 24% 1794 106264 15510 56%
c - 13.12 25 282 0 14 3331 34 33866 12695 3.5 21 6 2 6 24% 1850 106264 15510 56%
c - 14.22 25 273 0 15 3761 34 37608 14456 3.5 21 6 2 6 24% 1928 106264 15510 56%
c o 14.58 25 273 0 15 3899 33 40049 16506 3.4 20 6 2 6 24% 1963 106264 15510 56%
c c 14.95 25 272 0 15 4040 33 41274 17611 3.4 21 6 2 6 24% 2061 105666 15408 56%
c d 14.96 25 272 0 15 4040 33 41274 17216 3.4 21 6 2 6 24% 1857 105666 15408 56%
c u 15.04 25 272 0 15 4040 33 41274 15034 3.4 21 6 2 6 24% 1895 105666 15408 56%
c v 15.11 25 272 0 15 4040 33 41274 14272 3.4 21 6 2 6 24% 1896 105666 15408 56%
c w 15.16 25 272 0 15 4040 33 41274 14272 3.4 21 6 2 6 24% 1896 105666 15408 56%
c x 15.20 26 272 0 15 4040 33 41274 14272 3.4 21 6 2 6 24% 1896 105653 15408 56%
c = 15.44 26 272 0 15 4040 33 41274 14272 3.4 21 6 2 6 24% 2008 105653 15352 56%
c d 15.45 26 272 0 15 4040 33 41274 14099 3.4 21 6 2 6 24% 1850 105653 15341 56%
c t 15.47 26 272 0 15 4040 33 41274 14099 3.4 21 6 2 6 24% 1845 105653 15341 56%
c f 15.48 26 272 0 15 4040 33 41274 14099 3.4 21 6 2 6 24% 1859 105614 15348 56%
c u 15.57 26 272 0 15 4040 33 41274 13628 3.4 21 6 2 6 24% 1866 105614 15348 56%
c v 15.64 26 272 0 15 4040 33 41274 12655 3.4 21 6 2 6 24% 1870 105614 15348 56%
c w 15.80 26 272 0 15 4040 33 41274 12651 3.4 21 6 2 6 24% 1870 105614 15348 56%
c
c  seconds   switched     rate         size/glue tier1    binary          remaining
c         MB   reductions   conflicts        size  tier2     irredundant
c           level   restarts      redundant    glue   trail          variables
c
c = 16.05 26 272 0 15 4040 33 41274 12651 3.4 21 6 2 6 24% 1908 105614 15329 55%
c d 16.06 26 272 0 15 4040 33 41274 12601 3.4 21 6 2 6 24% 1866 105614 15327 55%
c t 16.07 26 272 0 15 4040 33 41274 12601 3.4 21 6 2 6 24% 1862 105614 15327 55%
c - 16.09 26 271 0 16 4040 33 41480 11655 3.4 21 6 2 6 24% 1864 105614 15327 55%
c - 16.77 26 266 0 17 4329 32 45481 13824 3.3 20 6 2 5 23% 1914 105614 15327 55%
c - 17.71 26 253 0 18 4677 31 49606 15979 3.3 20 6 2 5 23% 1959 105614 15327 55%
c s 18.30 26 246 0 18 4949 31 52145 18177 3.3 20 6 2 5 23% 1992 90749 15327 55%
c e 18.38 26 246 0 18 4949 31 52145 18177 3.3 20 6 2 5 23% 1537 91548 15008 54%
c s 18.38 26 246 0 18 4949 31 52145 18177 3.3 20 6 2 5 23% 1540 91129 15008 54%
c e 18.39 26 246 0 18 4949 31 52145 18177 3.3 20 6 2 5 23% 1420 91306 14952 54%
c ^ 18.39 26 246 0 18 4949 31 52145 18177 3.3 20 6 2 5 23% 1420 91306 14952 54%
c - 18.63 26 244 0 19 5091 31 53850 16708 3.2 20 6 2 5 23% 1450 91306 14952 54%
c - 19.57 26 237 0 20 5601 30 58209 18589 3.2 20 6 2 5 23% 1509 91306 14952 54%
c c 19.94 26 236 0 20 5754 30 58903 19250 3.3 21 6 2 5 23% 1584 90788 14882 54%
c d 19.95 26 236 0 20 5754 30 58903 18988 3.3 21 6 2 5 23% 1444 90788 14882 54%
c u 20.05 26 236 0 20 5754 30 58903 16431 3.3 21 6 2 5 23% 1480 90788 14882 54%
c v 20.14 26 236 0 20 5754 30 58903 14981 3.3 21 6 2 5 23% 1486 90788 14882 54%
c w 20.30 26 236 0 20 5754 30 58903 14776 3.3 21 6 2 5 23% 1486 90788 14882 54%
c = 20.66 26 236 0 20 5754 30 58903 14776 3.3 21 6 2 5 23% 1540 90788 14855 54%
c d 20.66 26 236 0 20 5754 30 58903 14725 3.3 21 6 2 5 23% 1448 90788 14841 54%
c
c  seconds   switched     rate         size/glue tier1    binary         remaining
c         MB   reductions   conflicts        size  tier2     irredundant
c           level   restarts      redundant    glue   trail         variables
c
c t 20.68 26 236 0 20 5754 30 58903 14725 3.3 21 6 2 5 23% 1446 90788 14841 54%
c f 20.71 26 236 0 20 5754 30 58903 14725 3.3 21 6 2 5 23% 1456 90753 14846 54%
c c 20.78 26 236 0 20 5754 30 58903 14673 3.3 21 6 2 5 23% 1468 90681 14837 54%
c d 20.79 26 236 0 20 5754 30 58903 14673 3.3 21 6 2 5 23% 1450 90681 14837 54%
c u 20.86 26 236 0 20 5754 30 58903 14019 3.3 21 6 2 5 23% 1459 90681 14837 54%
c v 20.91 26 236 0 20 5754 30 58903 13725 3.3 21 6 2 5 23% 1460 90681 14837 54%
c w 21.04 26 236 0 20 5754 30 58903 13658 3.3 21 6 2 5 23% 1460 90681 14837 54%
c x 21.11 26 236 0 20 5754 30 58903 13657 3.3 21 6 2 5 23% 1463 90376 14837 54%
c = 21.48 26 236 0 20 5754 30 58903 13657 3.3 21 6 2 5 23% 1713 90376 14712 53%
c d 21.49 26 236 0 20 5754 30 58903 13525 3.3 21 6 2 5 23% 1424 90376 14711 53%
c t 21.51 26 236 0 20 5754 30 58903 13525 3.3 21 6 2 5 23% 1416 90376 14711 53%
c - 22.39 26 228 0 21 6073 30 62681 15533 3.2 20 6 2 5 23% 1446 90376 14711 53%
c - 23.21 26 222 0 22 6372 29 67266 17790 3.2 20 6 2 5 23% 1517 90375 14711 53%
c o 24.32 26 220 0 22 6832 29 70596 20809 3.2 21 7 2 5 23% 1528 90375 14711 53%
c - 24.83 26 218 0 23 7016 29 71956 19874 3.2 21 7 2 5 24% 1532 90375 14711 53%
c - 26.35 26 213 0 24 7583 29 76752 19499 3.2 21 7 1 5 24% 1584 90373 14711 53%
c d 27.29 26 210 0 24 7944 29 79960 22259 3.2 22 7 1 5 24% 1517 90372 14663 53%
c u 27.37 26 210 0 24 7944 29 79960 20721 3.2 22 7 1 5 24% 1528 90372 14663 53%
c v 27.50 26 210 0 24 7944 29 79960 17691 3.2 22 7 1 5 24% 1544 90372 14663 53%
c w 27.78 26 210 0 24 7944 29 79960 17616 3.2 22 7 1 5 24% 1544 90372 14663 53%
c
c  seconds   switched     rate         size/glue tier1    binary         remaining
c         MB   reductions   conflicts        size  tier2     irredundant
c           level   restarts      redundant    glue   trail         variables
c
c = 27.81 26 210 0 24 7944 29 79960 17616 3.2 22 7 1 5 24% 1570 90372 14650 53%
c d 27.82 26 210 0 24 7944 29 79960 17585 3.2 22 7 1 5 24% 1522 90372 14640 53%
c t 27.83 26 210 0 24 7944 29 79960 17585 3.2 22 7 1 5 24% 1519 90372 14640 53%
c f 27.85 26 210 0 24 7944 29 79960 17585 3.2 22 7 1 5 24% 1523 90352 14642 53%
c c 27.93 26 210 0 24 7944 29 79960 17530 3.2 22 7 1 5 24% 1566 90120 14614 53%
c d 27.93 26 210 0 24 7944 29 79960 17530 3.2 22 7 1 5 24% 1510 90120 14614 53%
c u 28.00 26 210 0 24 7944 29 79960 17180 3.2 22 7 1 5 24% 1513 90120 14614 53%
c v 28.10 26 210 0 24 7944 29 79960 16548 3.2 22 7 1 5 24% 1516 90120 14614 53%
c w 28.28 26 210 0 24 7944 29 79960 16235 3.2 22 7 1 5 24% 1516 90120 14614 53%
c x 28.36 26 210 0 24 7944 29 79960 16235 3.2 22 7 1 5 24% 1516 90075 14614 53%
c = 28.87 26 210 0 24 7944 29 79960 16235 3.2 22 7 1 5 24% 2062 90075 14341 52%
c d 28.88 26 210 0 24 7944 29 79960 15909 3.2 22 7 1 5 24% 1464 90075 14341 52%
c t 28.89 26 210 0 24 7944 29 79960 15909 3.2 22 7 1 5 24% 1455 90075 14341 52%
c - 29.42 26 208 0 25 8109 28 81650 14774 3.2 22 7 1 5 24% 1461 90075 14341 52%
c - 30.75 26 204 0 26 8605 28 86652 16748 3.2 22 7 1 5 25% 1486 90075 14341 52%
c - 32.12 26 201 0 27 9099 28 91751 18528 3.2 22 7 1 5 25% 1514 90075 14341 52%
c s 33.27 26 197 0 27 9536 28 95803 22141 3.2 22 7 1 5 24% 1551 87626 14341 52%
c e 33.39 26 197 0 27 9536 28 95803 22141 3.2 22 7 1 5 24% 1076 89177 13966 51%
c s 33.40 26 197 0 27 9536 28 95803 22141 3.2 22 7 1 5 24% 1079 88571 13966 51%
c e 33.42 26 197 0 27 9536 28 95803 22141 3.2 22 7 1 5 24% 1054 88644 13946 50%
c
c  seconds   switched     rate         size/glue tier1    binary         remaining
c         MB   reductions   conflicts        size  tier2     irredundant
c           level   restarts      redundant    glue   trail         variables
c
c ^ 33.42 26 197 0 27 9536 28 95803 22141 3.2 22 7 1 5 24% 1054 88644 13946 50%
c - 33.83 26 196 0 28 9710 28 96947 18613 3.2 22 7 1 5 25% 1058 88639 13946 50%
c - 34.99 26 190 0 29 10155 27 102239 19893 3.1 22 7 1 5 25% 1095 88638 13946 50%
c c 35.67 26 188 0 29 10401 27 104567 21985 3.1 22 7 1 5 25% 1158 88344 13909 50%
c d 35.68 26 188 0 29 10401 27 104567 21917 3.1 22 7 1 5 25% 1084 88344 13909 50%
c u 35.76 26 188 0 29 10401 27 104567 20351 3.1 22 7 1 5 25% 1094 88344 13909 50%
c v 35.91 26 188 0 29 10401 27 104567 17431 3.1 22 7 1 5 25% 1097 88344 13909 50%
c w 36.22 26 188 0 29 10401 27 104567 17096 3.1 22 7 1 5 25% 1097 88344 13909 50%
c = 36.80 26 188 0 29 10401 27 104567 17096 3.1 22 7 1 5 25% 1399 88316 13758 50%
c d 36.81 26 188 0 29 10401 27 104567 16970 3.1 22 7 1 5 25% 1076 88316 13757 50%
c t 36.83 26 188 0 29 10401 27 104567 16970 3.1 22 7 1 5 25% 1050 88316 13757 50%
c f 36.88 26 188 0 29 10401 27 104567 16970 3.1 22 7 1 5 25% 1052 88304 13758 50%
c u 37.01 26 188 0 29 10401 27 104567 16585 3.1 22 7 1 5 25% 1059 88304 13758 50%
c v 37.11 26 188 0 29 10401 27 104567 15926 3.1 22 7 1 5 25% 1059 88304 13758 50%
c w 37.37 26 188 0 29 10401 27 104567 15760 3.1 22 7 1 5 25% 1059 88304 13758 50%
c t 37.91 26 188 0 29 10401 27 104567 15760 3.1 22 7 1 5 25% 1052 88304 13758 50%
c - 38.82 26 186 0 30 10693 27 107625 16066 3.1 22 7 1 5 25% 1065 88303 13758 50%
c o 39.72 26 183 0 30 10968 26 110643 18847 3.1 22 7 1 5 25% 1073 88303 13758 50%
c - 40.30 26 182 0 31 11128 26 113102 18242 3.1 22 7 1 5 25% 1097 88302 13758 50%
c - 41.67 26 182 0 32 11544 26 118670 20284 3.1 23 7 1 5 25% 1131 88296 13758 50%
c
c  seconds   switched      rate          size/glue tier1    binary         remaining
c         MB   reductions    conflicts         size  tier2     irredundant
c           level   restarts        redundant    glue   trail         variables
c
c - 42.97 26 181 0 33 11966 25 124327 21564 3.1 23 7 1 5 25% 1203 88295 13758 50%
c - 44.64 26 179 0 34 12484 25 130071 22716 3.1 23 7 1 5 26% 1244 88291 13758 50%
c d 45.72 26 178 0 34 12809 25 132805 25210 3.1 23 8 1 5 26% 1167 88291 13717 50%
c u 45.82 26 178 0 34 12809 25 132805 23340 3.1 23 8 1 5 26% 1180 88291 13717 50%
c v 45.98 26 178 0 34 12809 25 132805 20034 3.1 23 8 1 5 26% 1187 88291 13717 50%
c w 46.21 26 178 0 34 12809 25 132805 20025 3.1 23 8 1 5 26% 1187 88291 13717 50%
c x 46.38 26 178 0 34 12809 25 132805 20013 3.1 23 8 1 5 26% 1194 85267 13717 50%
c d 46.39 26 178 0 34 12809 25 132805 20002 3.1 23 8 1 5 26% 1178 85263 13709 50%
c t 46.40 26 178 0 34 12809 25 132805 20002 3.1 23 8 1 5 26% 1173 85263 13709 50%
c c 46.49 26 178 0 34 12809 25 132805 19958 3.1 23 8 1 5 26% 1207 85147 13694 50%
c d 46.49 26 178 0 34 12809 25 132805 19955 3.1 23 8 1 5 26% 1177 85147 13694 50%
c u 46.57 26 178 0 34 12809 25 132805 19390 3.1 23 8 1 5 26% 1182 85147 13694 50%
c v 46.66 26 178 0 34 12809 25 132805 18688 3.1 23 8 1 5 26% 1186 85147 13694 50%
c w 47.09 26 178 0 34 12809 25 132805 18232 3.1 23 8 1 5 26% 1186 85147 13694 50%
c d 47.71 26 178 0 34 12809 25 132805 18230 3.1 23 8 1 5 26% 1180 85147 13691 50%
c t 47.73 26 178 0 34 12809 25 132805 18230 3.1 23 8 1 5 26% 1174 85147 13691 50%
c - 48.23 26 176 0 35 12960 25 135902 18279 3.1 23 8 1 5 26% 1183 85146 13691 50%
c - 49.13 26 173 0 36 13214 24 141818 20625 3.0 23 7 1 5 26% 1214 85144 13691 50%
c - 50.50 26 172 0 37 13668 24 147818 22598 3.0 23 8 1 5 26% 1262 85142 13691 50%
c - 52.18 26 173 0 38 14149 24 153900 24177 3.0 23 8 1 5 26% 1314 85142 13691 50%
c
c  seconds   switched      rate          size/glue tier1    binary         remaining
c         MB   reductions    conflicts         size  tier2     irredundant
c           level   restarts        redundant    glue   trail         variables
c
c s 53.42 26 172 0 38 14541 24 157853 27759 3.1 24 8 1 5 26% 1349 84948 13691 50%
c e 53.59 26 172 0 38 14541 24 157853 27759 3.1 24 8 1 5 26% 961 96555 12124 44%
c s 53.63 26 172 0 38 14541 24 157853 27759 3.1 24 8 1 5 26% 963 94290 12124 44%
c e 53.67 26 172 0 38 14541 24 157853 27759 3.1 24 8 1 5 26% 937 94470 12063 44%
c ^ 53.67 26 172 0 38 14541 24 157853 27759 3.1 24 8 1 5 26% 937 94470 12063 44%
c - 54.23 26 171 0 39 14716 24 160064 19980 3.1 24 8 1 5 26% 947 94468 12063 44%
c o 54.41 26 171 0 39 14768 23 160687 20565 3.1 24 8 1 5 26% 948 94468 12063 44%
c c 55.77 26 170 0 39 15164 23 164779 24431 3.1 24 8 1 5 26% 1002 94210 12031 44%
c d 55.78 26 170 0 39 15164 23 164779 24362 3.1 24 8 1 5 26% 938 94210 12031 44%
c u 55.87 26 170 0 39 15164 23 164779 22028 3.1 24 8 1 5 26% 948 94210 12031 44%
c v 56.02 26 170 0 39 15164 23 164779 19154 3.1 24 8 1 5 26% 951 94210 12031 44%
c w 56.30 26 170 0 39 15164 23 164779 19140 3.1 24 8 1 5 26% 951 94210 12031 44%
c x 56.45 26 170 0 39 15164 23 164779 19124 3.1 24 8 1 5 26% 987 93785 12031 44%
c d 56.46 26 170 0 39 15164 23 164779 19121 3.1 24 8 1 5 26% 981 93785 12028 44%
c t 56.47 26 170 0 39 15164 23 164779 19121 3.1 24 8 1 5 26% 935 93785 12028 44%
c f 56.61 26 170 0 39 15164 23 164779 19121 3.1 24 8 1 5 26% 937 93763 12029 44%
c c 56.68 26 170 0 39 15164 23 164779 19110 3.1 24 8 1 5 26% 941 93747 12026 44%
c d 56.69 26 170 0 39 15164 23 164779 19110 3.1 24 8 1 5 26% 937 93747 12026 44%
c u 56.76 26 170 0 39 15164 23 164779 18678 3.1 24 8 1 5 26% 938 93747 12026 44%
c v 56.86 26 170 0 39 15164 23 164779 18142 3.1 24 8 1 5 26% 939 93747 12026 44%
c
c  seconds   switched      rate          size/glue tier1   binary         remaining
c         MB   reductions    conflicts         size  tier2    irredundant
c           level   restarts        redundant    glue   trail        variables
c
c w 57.18 26 170 0 39 15164 23 164779 17981 3.1 24 8 1 5 26% 939 93747 12026 44%
c x 57.31 26 170 0 39 15164 23 164779 17977 3.1 24 8 1 5 26% 949 93693 12026 44%
c t 57.33 26 170 0 39 15164 23 164779 17977 3.1 24 8 1 5 26% 937 93693 12026 44%
c - 57.56 26 169 0 40 15219 23 166308 16680 3.1 24 8 1 5 26% 945 93691 12026 44%
c - 58.69 26 170 0 41 15571 23 172633 19331 3.0 24 8 1 5 26% 977 93687 12026 44%
c - 60.17 26 170 0 42 16071 23 179036 21471 3.0 24 8 1 5 27% 1024 93686 12026 44%
c - 61.75 26 169 0 43 16532 23 185516 23258 3.0 24 8 1 5 27% 1057 93684 12026 44%
c - 63.14 26 167 0 44 16919 22 192074 24660 3.0 24 8 1 5 27% 1107 93683 12026 44%
c - 64.45 26 164 0 45 17331 22 198708 25607 2.9 23 8 1 5 27% 1160 93682 12026 44%
c d 64.69 26 164 0 45 17410 21 200558 26990 2.9 23 8 1 5 27% 1017 93680 11943 43%
c u 64.79 26 164 0 45 17410 21 200558 24567 2.9 23 8 1 5 27% 1036 93680 11943 43%
c v 64.96 26 164 0 45 17410 21 200558 20928 2.9 23 8 1 5 27% 1047 93680 11943 43%
c w 65.13 26 164 0 45 17410 21 200558 20517 2.9 23 8 1 5 27% 1047 93680 11943 43%
c d 65.73 26 164 0 45 17410 21 200558 20512 2.9 23 8 1 5 27% 1033 93680 11936 43%
c t 65.74 26 164 0 45 17410 21 200558 20512 2.9 23 8 1 5 27% 1025 93680 11936 43%
c c 65.80 26 164 0 45 17410 21 200558 20512 2.9 23 8 1 5 27% 1088 93268 11895 43%
c d 65.80 26 164 0 45 17410 21 200558 20420 2.9 23 8 1 5 27% 1006 93268 11895 43%
c u 65.86 26 164 0 45 17410 21 200558 19777 2.9 23 8 1 5 27% 1011 93268 11895 43%
c v 65.92 26 164 0 45 17410 21 200558 18887 2.9 23 8 1 5 27% 1020 93268 11895 43%
c w 66.01 26 164 0 45 17410 21 200558 18691 2.9 23 8 1 5 27% 1020 93268 11895 43%
c
c  seconds   switched      rate          size/glue tier1    binary         remaining
c         MB   reductions    conflicts         size  tier2     irredundant
c           level   restarts        redundant    glue   trail         variables
c
c x 66.16 26 164 0 45 17410 21 200558 18648 2.9 23 8 1 5 27% 1054 90250 11895 43%
c d 66.17 26 164 0 45 17410 21 200558 18647 2.9 23 8 1 5 27% 1052 90250 11894 43%
c t 66.18 26 164 0 45 17410 21 200558 18647 2.9 23 8 1 5 27% 1018 90250 11894 43%
c - 66.68 26 161 0 46 17610 21 205416 19700 2.9 23 8 1 5 27% 1036 90248 11894 43%
c - 67.33 26 158 0 47 17871 20 212200 22044 2.8 23 8 1 5 26% 1078 90246 11894 43%
c - 68.11 26 155 0 48 18241 20 219055 23924 2.8 22 8 1 5 26% 1093 90246 11894 43%
c o 68.34 26 155 0 48 18347 19 220710 25447 2.8 22 8 1 5 26% 1098 90246 11894 43%
c - 69.00 26 152 0 49 18664 19 225983 25375 2.8 22 8 1 5 26% 1116 90246 11894 43%
c - 70.00 26 150 0 50 19209 19 232984 26654 2.8 22 8 1 5 26% 1138 90246 11894 43%
c s 70.79 26 147 0 50 19629 19 239959 32860 2.7 22 8 1 5 26% 1209 90208 11894 43%
c e 70.98 27 147 0 50 19629 19 239959 32860 2.7 22 8 1 5 26% 909 107875 10525 38%
c s 71.02 27 147 0 50 19629 19 239959 32860 2.7 22 8 1 5 26% 909 103251 10525 38%
c e 71.08 27 147 0 50 19629 19 239959 32860 2.7 22 8 1 5 26% 891 103780 10482 38%
c ! 71.08 27 147 0 50 19629 19 239959 32860 2.7 22 8 1 5 26% 891 103780 10482 38%
c - 71.10 27 147 0 51 19630 19 240055 19564 2.7 22 8 1 5 26% 891 103780 10482 38%
c c 71.14 27 147 0 51 19638 19 240224 19679 2.7 22 8 1 5 26% 914 103691 10473 38%
c d 71.15 27 147 0 51 19638 19 240224 19664 2.7 22 8 1 5 26% 896 103691 10473 38%
c u 71.20 27 147 0 51 19638 19 240224 17506 2.7 22 8 1 5 26% 902 103691 10473 38%
c v 71.27 27 147 0 51 19638 19 240224 14575 2.7 22 8 1 5 26% 907 103691 10473 38%
c w 71.30 27 147 0 51 19638 19 240224 14424 2.7 22 8 1 5 26% 907 103691 10473 38%
c
c  seconds   switched      rate          size/glue tier1   binary          remaining
c         MB   reductions    conflicts         size  tier2    irredundant
c           level   restarts        redundant    glue   trail         variables
c
c x 71.43 27 147 0 51 19638 19 240224 14367 2.7 22 8 1 5 26% 943 103045 10473 38%
c d 71.43 27 147 0 51 19638 19 240224 14365 2.7 22 8 1 5 26% 937 103041 10470 38%
c t 71.44 27 147 0 51 19638 19 240224 14365 2.7 22 8 1 5 26% 878 103041 10470 38%
c f 71.56 27 147 0 51 19638 19 240224 14365 2.7 22 8 1 5 26% 896 102843 10480 38%
c u 71.61 27 147 0 51 19638 19 240224 14167 2.7 22 8 1 5 26% 899 102843 10480 38%
c v 71.66 27 147 0 51 19638 19 240224 13660 2.7 22 8 1 5 26% 899 102843 10480 38%
c w 71.68 27 147 0 51 19638 19 240224 13591 2.7 22 8 1 5 26% 899 102843 10480 38%
c x 71.83 27 147 0 51 19638 19 240224 13582 2.7 22 8 1 5 26% 915 102717 10480 38%
c t 71.84 27 147 0 51 19638 19 240224 13582 2.7 22 8 1 5 26% 899 102717 10480 38%
c - 72.66 27 145 0 52 20004 18 247196 16888 2.7 21 8 1 5 26% 920 102693 10480 38%
c - 73.30 27 142 0 53 20309 18 254407 20062 2.6 21 8 1 5 26% 952 102683 10480 38%
c - 74.14 27 140 0 54 20745 17 261687 22298 2.6 21 8 1 5 26% 972 102677 10480 38%
c - 74.93 27 137 0 55 21183 17 269035 23811 2.6 20 8 1 5 26% 988 102674 10480 38%
c - 75.92 27 135 0 56 21665 17 276452 25011 2.5 20 8 1 5 26% 998 102669 10480 38%
c c 76.95 27 134 0 56 22209 17 283851 31794 2.5 20 8 1 5 26% 1023 102402 10443 38%
c d 76.96 27 134 0 56 22209 17 283851 31701 2.5 20 8 1 5 26% 949 102402 10443 38%
c u 77.04 27 134 0 56 22209 17 283851 29831 2.5 20 8 1 5 26% 955 102402 10443 38%
c v 77.23 27 134 0 56 22209 17 283851 24515 2.5 20 8 1 5 26% 963 102402 10443 38%
c w 77.39 27 134 0 56 22209 17 283851 24424 2.5 20 8 1 5 26% 963 102402 10443 38%
c d 77.93 27 134 0 56 22209 17 283851 24422 2.5 20 8 1 5 26% 959 102402 10441 38%
c
c  seconds   switched      rate          size/glue tier1   binary          remaining
c         MB   reductions    conflicts         size  tier2    irredundant
c           level   restarts        redundant    glue   trail         variables
c
c t 77.94 27 134 0 56 22209 17 283851 24422 2.5 20 8 1 5 26% 952 102402 10441 38%
c u 78.05 27 134 0 56 22209 17 283851 24120 2.5 20 8 1 5 26% 955 102402 10441 38%
c v 78.16 27 134 0 56 22209 17 283851 23082 2.5 20 8 1 5 26% 958 102402 10441 38%
c w 78.26 27 134 0 56 22209 17 283851 22940 2.5 20 8 1 5 26% 958 102402 10441 38%
c x 78.38 27 134 0 56 22209 17 283851 22854 2.5 20 8 1 5 26% 966 100465 10441 38%
c t 78.39 27 134 0 56 22209 17 283851 22854 2.5 20 8 1 5 26% 956 100465 10441 38%
c - 78.42 27 134 0 57 22210 17 283935 18757 2.5 20 8 1 5 26% 956 100465 10441 38%
c o 79.10 27 132 0 57 22546 16 290710 24987 2.5 20 8 1 5 26% 964 100458 10441 38%
c - 79.23 27 132 0 58 22624 16 291486 21240 2.5 20 8 1 5 26% 964 100457 10441 38%
c - 80.10 27 131 0 59 23061 16 299101 23779 2.4 19 8 1 5 26% 993 100453 10441 38%
c - 81.09 27 129 0 60 23613 16 306782 25530 2.4 19 8 1 5 26% 1007 100446 10441 38%
c i 81.30 27 127 0 60 23724 16 309583 27898 2.4 19 8 1 5 26% 1033 100443 10440 38%
c - 81.92 27 126 0 61 24063 16 314528 26769 2.4 19 8 1 5 26% 1046 100443 10440 38%
c - 82.95 27 124 0 62 24644 16 322338 28008 2.4 19 8 1 5 26% 1068 100438 10440 38%
c i 82.96 27 124 0 62 24647 16 322420 28077 2.4 19 8 1 5 26% 1069 100438 10438 38%
c i 83.10 27 124 0 62 24712 15 323961 29508 2.4 19 8 1 5 26% 1074 100438 10437 38%
c i 83.12 27 124 0 62 24723 15 324144 29632 2.4 19 8 1 5 26% 1079 100438 10436 38%
c i 83.48 27 123 0 62 24933 15 326962 32227 2.4 19 8 1 5 26% 1089 100438 10419 38%
c i 83.68 27 123 0 62 25043 15 328405 33533 2.3 19 8 1 5 26% 1095 100438 10413 38%
c i 83.79 27 123 0 62 25075 15 329429 34430 2.3 19 8 1 5 26% 1107 100438 10412 38%
c
c  seconds   switched      rate          size/glue tier1    binary          remaining
c         MB   reductions    conflicts         size  tier2     irredundant
c           level   restarts        redundant    glue   trail          variables
c
c - 83.81 27 122 0 63 25081 15 330214 28441 2.3 19 8 1 5 26% 1054 100438 10412 38%
c i 83.96 27 122 0 63 25164 15 331470 29500 2.3 19 8 1 5 26% 1066 100438 10411 38%
c d 83.97 27 122 0 63 25164 15 331502 29378 2.3 19 8 1 5 26% 1056 100117 10385 38%
c d 83.97 27 122 0 63 25164 15 331502 29358 2.3 19 8 1 5 26% 1014 100107 10364 37%
c b 83.98 27 122 0 63 25164 15 331502 29358 2.3 19 8 1 5 26% 1014 100107 10363 37%
c u 84.05 27 122 0 63 25164 15 331502 27071 2.3 19 8 1 5 26% 1021 100107 10363 37%
c v 84.18 27 122 0 63 25164 15 331502 22165 2.3 19 8 1 5 26% 1033 100107 10363 37%
c w 84.24 27 122 0 63 25164 15 331502 21978 2.3 19 8 1 5 26% 1033 100107 10363 37%
c x 84.34 27 122 0 63 25164 15 331502 21923 2.3 19 8 1 5 26% 1033 100006 10363 37%
c d 84.34 27 122 0 63 25164 15 331502 21922 2.3 19 8 1 5 26% 1029 100006 10361 37%
c t 84.35 27 122 0 63 25164 15 331502 21922 2.3 19 8 1 5 26% 1027 100006 10361 37%
c c 84.43 27 122 0 63 25164 15 331502 21917 2.3 19 8 1 5 26% 1019 99998 10360 37%
c d 84.43 27 122 0 63 25164 15 331502 21917 2.3 19 8 1 5 26% 1017 99998 10360 37%
c u 84.49 27 122 0 63 25164 15 331502 21498 2.3 19 8 1 5 26% 1026 99998 10360 37%
c v 84.57 27 122 0 63 25164 15 331502 20557 2.3 19 8 1 5 26% 1026 99998 10360 37%
c w 84.64 27 122 0 63 25164 15 331502 20246 2.3 19 8 1 5 26% 1026 99998 10360 37%
c d 84.65 27 122 0 63 25164 15 331502 20245 2.3 19 8 1 5 26% 1024 99998 10359 37%
c i 84.78 27 121 0 63 25199 15 332656 21322 2.3 19 8 1 5 26% 1030 99998 10357 37%
c i 84.84 27 121 0 63 25245 15 333472 22071 2.3 19 8 1 5 26% 1035 99998 10356 37%
c i 84.94 27 121 0 63 25270 15 334771 23238 2.3 18 8 1 5 26% 1041 99998 10354 37%
c
c  seconds   switched      rate          size/glue tier1    binary         remaining
c         MB   reductions    conflicts         size  tier2     irredundant
c           level   restarts        redundant    glue   trail         variables
c
c i 84.99 27 121 0 63 25292 15 335345 23743 2.3 18 8 1 5 26% 1045 99998 10353 37%
c i 85.05 27 120 0 63 25322 15 336537 24777 2.3 18 8 1 5 25% 1054 99997 10352 37%
c i 85.05 27 120 0 63 25325 15 336557 24791 2.3 18 8 1 5 25% 1056 99997 10351 37%
c i 85.05 27 120 0 63 25325 15 336587 24810 2.3 18 8 1 5 25% 1059 99997 10346 37%
c i 85.06 27 120 0 63 25338 15 337176 25323 2.3 18 8 1 5 25% 1061 99997 10345 37%
c i 85.09 27 119 0 63 25362 15 337900 25977 2.3 18 8 1 5 25% 1066 99997 10343 37%
c i 85.09 27 119 0 63 25363 15 337981 26046 2.3 18 8 1 5 25% 1067 99997 10341 37%
c i 85.09 27 119 0 63 25363 15 338116 26126 2.3 18 8 1 5 25% 1074 99997 10340 37%
c - 85.09 27 119 0 64 25363 15 338154 21262 2.3 18 8 1 5 25% 1013 99997 10340 37%
c i 85.10 27 119 0 64 25365 15 338424 21471 2.3 18 8 1 5 25% 1016 99997 10339 37%
c i 85.11 27 119 0 64 25372 15 338548 21537 2.3 18 8 1 5 25% 1024 99997 10336 37%
c i 85.11 27 119 0 64 25372 15 338578 21554 2.3 18 8 1 5 25% 1027 99997 10334 37%
c i 85.11 27 119 0 64 25372 15 338580 21554 2.3 18 8 1 5 25% 1028 99997 10332 37%
c i 85.11 27 119 0 64 25372 15 338585 21556 2.3 18 8 1 5 25% 1029 99996 10323 37%
c i 85.11 27 119 0 64 25372 15 338587 21557 2.3 18 8 1 5 25% 1029 99996 10321 37%
c i 85.11 27 119 0 64 25372 15 338593 21558 2.3 18 8 1 5 25% 1030 99996 10316 37%
c } 85.11 27 119 0 64 25372 15 338595 21558 2.3 18 8 1 5 25% 1030 99996 10313 37%
c 0 85.11 27 119 0 64 25372 15 338595 21558 2.3 18 8 1 5 25% 1030 99996 10313 37%
c
c ---- [ result ] ------------------------------------------------------------
c
s UNSATISFIABLE
c
c ---- [ profiling ] ---------------------------------------------------------
c
c          64.83   76.18 %  search
c          64.83   76.18 %  focused
c          19.57   22.99 %  simplify
c          18.70   21.97 %  probe
c           9.18   10.79 %  vivify
c           6.04    7.10 %  sweep
c           1.24    1.45 %  factor
c           1.19    1.40 %  eliminate
c           1.12    1.32 %  congruence
c           0.89    1.05 %  substitute
c           0.63    0.74 %  preprocess
c           0.41    0.48 %  reduce
c           0.29    0.34 %  fastel
c           0.20    0.23 %  subsume
c           0.14    0.16 %  transitive
c           0.09    0.11 %  backbone
c           0.05    0.06 %  lucky
c           0.02    0.03 %  parse
c =============================================
c          85.11  100.00 %  total
c
c ---- [ statistics ] --------------------------------------------------------
c
c chronological:                         9128                3 %  conflicts
c conflicts:                           338595             3978.41 per second
c congruent:                              660                2 %  variables
c decisions:                          6278614               18.54 per conflict
c eliminated:                           14998               54 %  variables
c factored:                              4089               15 %  variables
c fast_eliminated:                      10129               68 %  eliminated
c fast_strengthened:                      245                2 %  per strengthened
c fast_subsumed:                          168                0 %  per subsumed
c iterations:                              28                0 %  variables
c propagations:                     240092006          2821022    per second
c reductions:                              64             5291    interval
c reordered:                                8            42324    interval
c restarts:                             25372               13    interval
c strengthened:                         11132                0 %  checks
c substituted:                           6336               23 %  variables
c subsumed:                             39726                1 %  checks
c switched:                                 0                0    interval
c vivified:                            111740               12 %  checks
c
c ---- [ glue usage ] --------------------------------------------------------
c
c focused glue 1 used 542521 clauses 57.92% accumulated 57.92% tier1
c focused glue 2 used 178544 clauses 19.06% accumulated 76.98%
c focused glue 3 used  68737 clauses  7.34% accumulated 84.31%
c focused glue 4 used  36404 clauses  3.89% accumulated 88.20%
c focused glue 5 used  24030 clauses  2.57% accumulated 90.76% tier2
c
c ---- [ resources ] ---------------------------------------------------------
c
c maximum-resident-set-size:         28344320 bytes         27 MB
c process-time:                         1m 25s              85.11 seconds
c
c ---- [ shutting down ] -----------------------------------------------------
c
c exit 20
